; benchmark generated from python API
(set-info :status unknown)
(declare-fun s () Int)
(define-funs-rec ( ( Tn_06 ((x!1 Int)) Int)
                   ( pn_06 ((x!1 Int)) Int)
                   ( T2_06 ((x!1 Int)) Int)
                   ( p2_06 ((x!1 Int)) Int))
                 ( ((_ pn_06 0) x!1)
                   (let ((a!1 (mod (- x!1 ((_ pn_06 0) (div x!1 s))) s)))
                     (ite (= x!1 0) 0 a!1))
                   ((_ p2_06 0) x!1)
                   (let ((a!1 (mod (- x!1 ((_ p2_06 0) (div x!1 2))) 2)))
                     (ite (= x!1 0) 0 a!1))))
(assert
 (forall ((n Int) )(let ((?x322 ((_ Tn_06 0) n)))
(let ((?x383 ((_ T2_06 0) n)))
(let (($x381 (= ?x383 ?x322)))
(let (($x380 (>= n 0)))
(=> $x380 $x381))))))
)
(check-sat)
